<?xml version = "1.0" standalone="yes"?>
<!-- This file has been generated by DOcplex version 2.23.222  -->
<CPLEXSolution version="1.0">
 <header
   problemName="CVRP"
   objectiveValue="13297.3"
  />
 <variables>
  <variable name="x_0_2" index="1" value="1.00000"/>
  <variable name="x_0_3" index="2" value="1.00000"/>
  <variable name="x_0_10" index="9" value="1.00000"/>
  <variable name="x_0_11" index="10" value="1.00000"/>
  <variable name="x_0_12" index="11" value="1.00000"/>
  <variable name="x_0_13" index="12" value="1.00000"/>
  <variable name="x_0_16" index="15" value="1.00000"/>
  <variable name="x_0_18" index="17" value="1.00000"/>
  <variable name="x_0_19" index="18" value="1.00000"/>
  <variable name="x_0_20" index="19" value="1.00000"/>
  <variable name="x_0_22" index="21" value="1.00000"/>
  <variable name="x_0_25" index="24" value="1.00000"/>
  <variable name="x_0_27" index="26" value="1.00000"/>
  <variable name="x_0_30" index="29" value="1.00000"/>
  <variable name="x_1_0" index="30" value="1.00000"/>
  <variable name="x_2_0" index="60" value="1.00000"/>
  <variable name="x_3_7" index="96" value="1.00000"/>
  <variable name="x_4_0" index="120" value="1.00000"/>
  <variable name="x_5_0" index="150" value="1.00000"/>
  <variable name="x_6_8" index="187" value="1.00000"/>
  <variable name="x_7_0" index="210" value="1.00000"/>
  <variable name="x_8_9" index="248" value="1.00000"/>
  <variable name="x_9_0" index="270" value="1.00000"/>
  <variable name="x_10_0" index="300" value="1.00000"/>
  <variable name="x_11_28" index="357" value="1.00000"/>
  <variable name="x_12_0" index="360" value="1.00000"/>
  <variable name="x_13_0" index="390" value="1.00000"/>
  <variable name="x_14_29" index="448" value="1.00000"/>
  <variable name="x_15_0" index="450" value="1.00000"/>
  <variable name="x_16_15" index="495" value="1.00000"/>
  <variable name="x_17_6" index="516" value="1.00000"/>
  <variable name="x_18_21" index="560" value="1.00000"/>
  <variable name="x_19_1" index="571" value="1.00000"/>
  <variable name="x_20_23" index="622" value="1.00000"/>
  <variable name="x_21_0" index="630" value="1.00000"/>
  <variable name="x_22_4" index="664" value="1.00000"/>
  <variable name="x_23_17" index="707" value="1.00000"/>
  <variable name="x_24_0" index="720" value="1.00000"/>
  <variable name="x_25_5" index="755" value="1.00000"/>
  <variable name="x_26_0" index="780" value="1.00000"/>
  <variable name="x_27_14" index="824" value="1.00000"/>
  <variable name="x_28_24" index="864" value="1.00000"/>
  <variable name="x_29_26" index="896" value="1.00000"/>
  <variable name="x_30_0" index="900" value="1.00000"/>
  <variable name="u_1" index="930" value="20.00000"/>
  <variable name="u_2" index="931" value="17.00000"/>
  <variable name="u_3" index="932" value="12.00000"/>
  <variable name="u_4" index="933" value="22.00000"/>
  <variable name="u_5" index="934" value="20.00000"/>
  <variable name="u_6" index="935" value="19.00000"/>
  <variable name="u_7" index="936" value="22.00000"/>
  <variable name="u_8" index="937" value="20.00000"/>
  <variable name="u_9" index="938" value="23.00000"/>
  <variable name="u_10" index="939" value="12.00000"/>
  <variable name="u_11" index="940" value="12.00000"/>
  <variable name="u_12" index="941" value="23.00000"/>
  <variable name="u_13" index="942" value="18.00000"/>
  <variable name="u_14" index="943" value="15.00000"/>
  <variable name="u_15" index="944" value="23.00000"/>
  <variable name="u_16" index="945" value="8.00000"/>
  <variable name="u_17" index="946" value="17.00000"/>
  <variable name="u_18" index="947" value="7.00000"/>
  <variable name="u_19" index="948" value="17.00000"/>
  <variable name="u_20" index="949" value="2.00000"/>
  <variable name="u_21" index="950" value="20.00000"/>
  <variable name="u_22" index="951" value="12.00000"/>
  <variable name="u_23" index="952" value="4.00000"/>
  <variable name="u_24" index="953" value="23.00000"/>
  <variable name="u_25" index="954" value="1.00000"/>
  <variable name="u_26" index="955" value="23.00000"/>
  <variable name="u_27" index="956" value="2.00000"/>
  <variable name="u_28" index="957" value="13.00000"/>
  <variable name="u_29" index="958" value="21.00000"/>
  <variable name="u_30" index="959" value="20.00000"/>
 </variables>
</CPLEXSolution>
